
Gurobi 11.0.1 (win64) logging started Thu May 16 18:31:09 2024

Set parameter LogFile to value "output/solver_log0.txt"
Gurobi Optimizer version 11.0.1 build v11.0.1rc0 (win64 - Windows 11.0 (22631.2))

CPU model: 11th Gen Intel(R) Core(TM) i7-1165G7 @ 2.80GHz, instruction set [SSE2|AVX|AVX2|AVX512]
Thread count: 4 physical cores, 8 logical processors, using up to 8 threads

Optimize a model with 6229 rows, 1703 columns and 121507 nonzeros
Model fingerprint: 0x79f11078
Variable types: 568 continuous, 1135 integer (1135 binary)
Coefficient statistics:
  Matrix range     [4e-01, 1e+05]
  Objective range  [1e+00, 1e+02]
  Bounds range     [1e+00, 1e+00]
  RHS range        [1e-02, 1e+05]

User MIP start produced solution with objective 39938.6 (0.01s)
User MIP start produced solution with objective 39938.6 (0.01s)
Loaded user MIP start with objective 39938.6

Presolve removed 1018 rows and 552 columns
Presolve time: 0.14s
Presolved: 5211 rows, 1151 columns, 101691 nonzeros
Variable types: 531 continuous, 620 integer (612 binary)

Root relaxation: objective 6.128499e+04, 2104 iterations, 0.11 seconds (0.20 work units)

    Nodes    |    Current Node    |     Objective Bounds      |     Work
 Expl Unexpl |  Obj  Depth IntInf | Incumbent    BestBd   Gap | It/Node Time

     0     0 61284.9852    0   71 39938.5937 61284.9852  53.4%     -    0s
     0     0 60142.1689    0   92 39938.5937 60142.1689  50.6%     -    0s
     0     0 59934.9641    0   88 39938.5937 59934.9641  50.1%     -    1s
     0     0 59934.9641    0   89 39938.5937 59934.9641  50.1%     -    1s
     0     0 59121.2054    0  127 39938.5937 59121.2054  48.0%     -    1s
     0     0 58997.4793    0  125 39938.5937 58997.4793  47.7%     -    1s
     0     0 58997.4793    0  125 39938.5937 58997.4793  47.7%     -    1s
     0     0 58185.9542    0   94 39938.5937 58185.9542  45.7%     -    2s
     0     0 58109.9381    0   89 39938.5937 58109.9381  45.5%     -    2s
     0     0 58109.1781    0   88 39938.5937 58109.1781  45.5%     -    2s
     0     0 58109.0745    0   97 39938.5937 58109.0745  45.5%     -    2s
     0     0 57517.0373    0  108 39938.5937 57517.0373  44.0%     -    2s
     0     0 57124.6848    0  110 39938.5937 57124.6848  43.0%     -    2s
     0     0 57124.6848    0   94 39938.5937 57124.6848  43.0%     -    2s
     0     0 57124.6848    0   98 39938.5937 57124.6848  43.0%     -    2s
     0     0 57124.6848    0   95 39938.5937 57124.6848  43.0%     -    2s
     0     0 57124.6848    0  109 39938.5937 57124.6848  43.0%     -    3s
     0     0 57124.6848    0  114 39938.5937 57124.6848  43.0%     -    3s
     0     0 57124.6848    0  115 39938.5937 57124.6848  43.0%     -    3s
     0     0 57124.6848    0  114 39938.5937 57124.6848  43.0%     -    3s
     0     0 57020.2261    0  118 39938.5937 57020.2261  42.8%     -    3s
     0     0 57020.2261    0  123 39938.5937 57020.2261  42.8%     -    3s
     0     0 57020.2261    0  114 39938.5937 57020.2261  42.8%     -    3s
     0     0 57020.2261    0  119 39938.5937 57020.2261  42.8%     -    3s
     0     0 57020.2261    0  118 39938.5937 57020.2261  42.8%     -    4s
     0     0 57020.2261    0  113 39938.5937 57020.2261  42.8%     -    4s
     0     0 57020.2261    0  114 39938.5937 57020.2261  42.8%     -    4s
     0     0 57020.2261    0  128 39938.5937 57020.2261  42.8%     -    4s
     0     0 57020.2261    0  123 39938.5937 57020.2261  42.8%     -    4s
     0     0 57020.2261    0  133 39938.5937 57020.2261  42.8%     -    4s
     0     0 57020.2261    0  133 39938.5937 57020.2261  42.8%     -    4s
     0     2 57020.2261    0  133 39938.5937 57020.2261  42.8%     -    5s
H   28    32                    39956.191618 55657.6621  39.3%   569    6s
    81    79 43490.1973   16   63 39956.1916 55657.6621  39.3%   760   10s
H  122    91                    39961.136541 55651.3565  39.3%   748   13s
H  125    91                    39971.795915 55651.3565  39.2%   739   13s
H  127    91                    39983.458994 55651.3565  39.2%   749   13s
   151   123 44496.2992   11  129 39983.4590 55651.3565  39.2%   798   15s
   489   391 39987.6564  102   73 39983.4590 55651.3565  39.2%   503   20s
H  736   452                    39990.304599 55230.5322  38.1%   406   23s
   835   522 41905.8002   13  122 39990.3046 55230.5322  38.1%   435   25s
  1032   597 40684.7558   11  108 39990.3046 54119.5874  35.3%   522   30s
  1216   652 41112.0890   15   96 39990.3046 53206.9835  33.0%   570   35s
  1528   787 42924.9449   12  147 39990.3046 52193.2439  30.5%   547   42s
H 1544   641                    39999.713977 52193.2439  30.5%   545   42s
  1703   707 40076.6933   16  133 39999.7140 51744.6196  29.4%   523   48s
  1709   711 51030.1913   13  140 39999.7140 51744.6196  29.4%   521   50s
  1724   721 40009.5090  123  201 39999.7140 51744.6196  29.4%   516   55s
H 1724   684                    40000.109357 51744.6196  29.4%   516   55s
  1766   712 40139.3842   17   97 40000.1094 48587.2601  21.5%   532   60s

Cutting planes:
  Gomory: 3
  Implied bound: 6
  MIR: 31
  Flow cover: 27
  RLT: 5
  Relax-and-lift: 3

Explored 1767 nodes (957534 simplex iterations) in 60.02 seconds (127.33 work units)
Thread count was 8 (of 8 available processors)

Solution count 8: 40000.1 39999.7 39990.3 ... 39938.6

Time limit reached
Best objective 4.000010935741e+04, best bound 4.858726014543e+04, gap 21.4678%
